webassembly/ejemplos_dzn/folder12_json_69.dzn
TERM = { '.', 's(2)', 's(4)', 'in_1', 'local_0', 'local_1', 'in_2', 'in_4', 'in_3', 's(1)', 's(0)', 'in_5', 's(3)', 'in_0'};
null = '.';
s = 12;
n = 11;
ndeps = 3;
max_registers_sz = 5;
NR = 2;
registers = [|'local_0', 'in_4', |'local_1', 'in_5'|];
dependencies = [|'i32.load8_s_1', 'i32.store_2', |'i32.store_2', 'i32.store_4', |'i32.store_4', 'call[function_index(0)]_10'|];
GET_ENUM = { GET1, GET2, GET3, GET4, GET5, GET6, GET7};
SET_ENUM = { SET1, SET2, SET3, SET4, SET5, SET6, SET7};
TEE_ENUM = { TEE1, TEE2, TEE3, TEE4, TEE5, TEE6, TEE7};
N = 5;
OP = { 'i32.sub_0', 'call[function_index(0)]_10', 'i32.load8_s_1', 'i32.store_2', 'i32.store_4' };
in_ops = [2, 0, 1, 2, 2 ];
out_ops = [1, 3, 1, 0, 0 ];
in1 = ['s(3)', '.', 'in_0', 's(0)', 'in_2' ];
in2 = ['s(2)', '.', '.', 'in_1', 'in_3' ];
in3 = ['.', '.', '.', '.', '.' ];
out1 = ['s(4)', 's(3)', 's(0)', '.', '.' ];
out2 = ['.', 's(2)', '.', '.', '.' ];
out3 = ['.', 's(1)', '.', '.', '.' ];
comm = [false, false, false, false, false ];
gas = [1, 1, 1, 1, 1 ];
sz = [1, 1, 1, 1, 1 ];
stor = [false, true, false, true, true ];
lb = [ 1, 1, 1, 1, 1 ];
ub = [ 12, 12, 12, 12, 12 ];
startstack = [ 'in_0', 'in_1', 'in_2', 'in_3', 'in_4', 'in_5', null, null, null, null, null ];
endstack = [ 's(4)', 's(1)', 'in_5', null, null, null, null, null, null, null, null ];
